proyfinal/src/viki/013/experimentInOfficeAgust.take6.output/2ea011d4-a1bd-4140-b248-659a27013642.als.dat
{'cnf.clauses': '118081',
 'cnf.totvars': '69608',
 'conflict literals': '62',
 'conflicts': '20',
 'decisions': '6126',
 'memused.mb': '15.26',
 'outcome': 'UNSAT',
 'propagations': '30354',
 'restarts': '1',
 'solver.msecs': 31,
 'task.msecs': 74}
