proyfinal/src/viki/013/experimentInOfficeAgust.take6.output/2ea011d4-a1bd-4140-b248-659a27013642.als.out
Reading from standard input... Use '--help' for help.
============================[ Problem Statistics ]=============================
|                                                                             |
|  Number of variables:         69608                                         |
|  Number of clauses:          118081                                         |
|  Parse time:                   0.02 s                                       |
|                                                                             |
============================[ Search Statistics ]==============================
| Conflicts |          ORIGINAL         |          LEARNT          | Progress |
|           |    Vars  Clauses Literals |    Limit  Clauses Lit/Cl |          |
===============================================================================
===============================================================================
restarts              : 1
conflicts             : 20             (643 /sec)
decisions             : 6126           (0.00 % random) (196883 /sec)
propagations          : 30354          (975542 /sec)
conflict literals     : 62             (0.00 % deleted)
Memory used           : 15.26 MB
CPU time              : 0.031115 s

UNSATISFIABLE
